NAME          
ROWS
 N  OBJ
 L  c1
 L  c2
COLUMNS
    MARKER    'MARKER'                 'INTORG'
    x[1]      c1        208
    x[1]      c2        869
    x[1]      OBJ       -834
    x[2]      c1        561
    x[2]      c2        357
    x[2]      OBJ       -978
    x[3]      c1        97
    x[3]      c2        417
    x[3]      OBJ       -728
    x[4]      c1        4
    x[4]      c2        782
    x[4]      OBJ       -954
    x[5]      c1        748
    x[5]      c2        325
    x[5]      OBJ       -237
    x[6]      c1        259
    x[6]      c2        147
    x[6]      OBJ       -142
    x[7]      c1        372
    x[7]      c2        334
    x[7]      OBJ       -931
    x[8]      c1        483
    x[8]      c2        515
    x[8]      OBJ       -732
    x[9]      c1        229
    x[9]      c2        761
    x[9]      OBJ       -741
    x[10]     c1        19
    x[10]     c2        955
    x[10]     OBJ       -423
    x[11]     c1        215
    x[11]     c2        581
    x[11]     OBJ       -323
    x[12]     c1        689
    x[12]     c2        708
    x[12]     OBJ       -961
    x[13]     c1        894
    x[13]     c2        318
    x[13]     OBJ       -124
    x[14]     c1        950
    x[14]     c2        727
    x[14]     OBJ       -28
    x[15]     c1        112
    x[15]     c2        8
    x[15]     OBJ       -811
    x[16]     c1        894
    x[16]     c2        580
    x[16]     OBJ       -367
    x[17]     c1        371
    x[17]     c2        667
    x[17]     OBJ       -674
    x[18]     c1        403
    x[18]     c2        619
    x[18]     OBJ       -28
    x[19]     c1        869
    x[19]     c2        304
    x[19]     OBJ       -310
    x[20]     c1        547
    x[20]     c2        218
    x[20]     OBJ       -217
    x[21]     c1        786
    x[21]     c2        612
    x[21]     OBJ       -420
    x[22]     c1        844
    x[22]     c2        86
    x[22]     OBJ       -882
    x[23]     c1        301
    x[23]     c2        761
    x[23]     OBJ       -821
    x[24]     c1        558
    x[24]     c2        307
    x[24]     OBJ       -280
    x[25]     c1        861
    x[25]     c2        725
    x[25]     OBJ       -318
    x[26]     c1        205
    x[26]     c2        938
    x[26]     OBJ       -848
    x[27]     c1        108
    x[27]     c2        184
    x[27]     OBJ       -639
    x[28]     c1        70
    x[28]     c2        894
    x[28]     OBJ       -727
    x[29]     c1        870
    x[29]     c2        884
    x[29]     OBJ       -443
    x[30]     c1        584
    x[30]     c2        632
    x[30]     OBJ       -391
    x[31]     c1        465
    x[31]     c2        715
    x[31]     OBJ       -661
    x[32]     c1        474
    x[32]     c2        463
    x[32]     OBJ       -251
    x[33]     c1        449
    x[33]     c2        139
    x[33]     OBJ       -177
    x[34]     c1        771
    x[34]     c2        280
    x[34]     OBJ       -256
    x[35]     c1        581
    x[35]     c2        639
    x[35]     OBJ       -459
    x[36]     c1        358
    x[36]     c2        949
    x[36]     OBJ       -619
    x[37]     c1        53
    x[37]     c2        725
    x[37]     OBJ       -835
    x[38]     c1        60
    x[38]     c2        8
    x[38]     OBJ       -670
    x[39]     c1        536
    x[39]     c2        53
    x[39]     OBJ       -277
    x[40]     c1        928
    x[40]     c2        347
    x[40]     OBJ       -42
    x[41]     c1        259
    x[41]     c2        403
    x[41]     OBJ       -916
    x[42]     c1        103
    x[42]     c2        646
    x[42]     OBJ       -334
    x[43]     c1        811
    x[43]     c2        690
    x[43]     OBJ       -165
    x[44]     c1        76
    x[44]     c2        662
    x[44]     OBJ       -64
    x[45]     c1        207
    x[45]     c2        248
    x[45]     OBJ       -256
RHS
    rhs       c1        10121
    rhs       c2        11591
RANGES
BOUNDS
 BV bounds    x[1]
 BV bounds    x[2]
 BV bounds    x[3]
 BV bounds    x[4]
 BV bounds    x[5]
 BV bounds    x[6]
 BV bounds    x[7]
 BV bounds    x[8]
 BV bounds    x[9]
 BV bounds    x[10]
 BV bounds    x[11]
 BV bounds    x[12]
 BV bounds    x[13]
 BV bounds    x[14]
 BV bounds    x[15]
 BV bounds    x[16]
 BV bounds    x[17]
 BV bounds    x[18]
 BV bounds    x[19]
 BV bounds    x[20]
 BV bounds    x[21]
 BV bounds    x[22]
 BV bounds    x[23]
 BV bounds    x[24]
 BV bounds    x[25]
 BV bounds    x[26]
 BV bounds    x[27]
 BV bounds    x[28]
 BV bounds    x[29]
 BV bounds    x[30]
 BV bounds    x[31]
 BV bounds    x[32]
 BV bounds    x[33]
 BV bounds    x[34]
 BV bounds    x[35]
 BV bounds    x[36]
 BV bounds    x[37]
 BV bounds    x[38]
 BV bounds    x[39]
 BV bounds    x[40]
 BV bounds    x[41]
 BV bounds    x[42]
 BV bounds    x[43]
 BV bounds    x[44]
 BV bounds    x[45]
ENDATA
